10
1 10
2 7
3 6
4 6
5 3
6 1
7 8
8 4
9 6
31
0 1 33
1 0 33
0 2 71
2 0 71
0 3 4
3 0 4
0 4 29
4 0 29
0 5 81
5 0 81
0 6 20
6 0 20
0 7 70
7 0 70
0 8 67
8 0 67
0 9 11
9 0 11
1 9 48
2 3 15
2 6 2
2 8 79
3 9 49
4 5 9
4 6 86
4 7 5
4 8 93
5 6 11
6 7 15
6 8 85
7 9 85
